130 5
10 10 10 10 10 

0 0 0 0 0 0 1 2 
0 0 0 0 0 0 4 3 5 6 7 
9 0 0 0 0 1 4 12 11 10 4 
5 0 0 0 0 3 2 9 8 
10 0 0 0 0 2 2 11 9 
8 0 0 0 0 2 1 10 
10 0 0 0 0 2 1 8 
4 0 0 0 0 5 1 13 
2 0 0 0 0 1 1 13 
4 0 0 0 0 4 1 13 
4 0 0 0 0 3 1 13 
8 0 0 0 0 2 1 13 
0 0 0 0 0 0 2 14 26 
0 0 0 0 0 0 2 15 16 
3 0 0 0 1 0 3 24 18 17 
10 0 0 0 2 0 2 20 19 
2 0 0 0 3 0 4 23 22 21 81 
10 0 0 0 2 0 2 23 21 
4 0 0 0 1 0 2 22 21 
5 0 0 0 5 0 1 21 
2 0 0 0 1 0 1 25 
3 0 0 0 3 0 1 25 
9 0 0 0 4 0 1 25 
4 0 0 0 3 0 1 25 
0 0 0 0 0 0 1 38 
0 0 0 0 0 0 4 27 28 29 30 
9 1 0 0 0 0 3 35 32 31 
4 4 0 0 0 0 3 36 35 32 
9 2 0 0 0 0 3 35 32 101 
9 2 0 0 0 0 2 35 32 
9 2 0 0 0 0 3 36 34 33 
10 2 0 0 0 0 2 34 33 
10 2 0 0 0 0 1 37 
7 3 0 0 0 0 1 37 
9 3 0 0 0 0 1 37 
7 4 0 0 0 0 1 37 
0 0 0 0 0 0 1 38 
0 0 0 0 0 0 3 39 51 73 
0 0 0 0 0 0 4 40 41 42 49 
3 0 0 0 1 0 5 47 46 45 44 108 
3 0 0 0 1 0 3 48 47 43 
3 0 0 0 2 0 2 46 45 
7 0 0 0 4 0 1 44 
5 0 0 0 3 0 1 50 
4 0 0 0 3 0 1 50 
2 0 0 0 1 0 1 50 
1 0 0 0 2 0 1 50 
7 0 0 0 4 0 1 50 
6 0 0 0 4 0 1 50 
0 0 0 0 0 0 2 95 107 
0 0 0 0 0 0 5 52 53 54 55 57 
1 0 0 1 0 1 4 61 60 59 58 
9 0 0 1 0 2 3 62 58 56 
6 0 0 4 0 2 5 71 64 63 62 61 
1 0 0 3 0 1 2 64 56 
5 0 0 1 0 2 4 71 69 63 61 
7 0 0 1 0 1 4 71 65 64 63 
7 0 0 4 0 4 3 65 64 63 
4 0 0 3 0 5 3 65 64 63 
7 0 0 4 0 2 4 71 69 68 65 
2 0 0 2 0 1 3 68 66 65 
7 0 0 2 0 4 3 70 66 65 
9 0 0 2 0 3 3 70 68 67 
7 0 0 4 0 2 2 69 66 
2 0 0 3 0 3 1 67 
6 0 0 2 0 4 1 67 
4 0 0 2 0 2 1 72 
5 0 0 1 0 3 1 72 
9 0 0 3 0 5 1 72 
2 0 0 3 0 1 1 72 
8 0 0 4 0 2 1 72 
0 0 0 0 0 0 1 119 
0 0 0 0 0 0 6 74 75 76 77 78 79 
3 1 1 0 0 0 5 88 86 82 81 80 
3 5 1 0 0 0 5 92 86 84 83 82 
4 3 4 0 0 0 3 86 81 80 
9 2 3 0 0 0 3 86 84 80 
7 2 3 0 0 0 5 93 92 91 84 83 
10 1 2 0 0 0 2 86 80 
7 2 1 0 0 0 5 93 92 91 87 85 
2 3 2 0 0 0 3 92 91 84 
4 3 3 0 0 0 4 93 91 90 87 
6 1 2 0 0 0 2 87 85 
9 3 1 0 0 0 2 90 87 
5 1 4 0 0 0 2 90 89 
2 2 5 0 0 0 2 90 89 
10 4 1 0 0 0 1 89 
8 1 3 0 0 0 1 89 
6 3 3 0 0 0 1 94 
7 2 5 0 0 0 1 94 
7 2 2 0 0 0 1 94 
1 6 3 0 0 0 1 94 
7 3 1 0 0 0 1 94 
0 0 0 0 0 0 1 119 
0 0 0 0 0 0 6 96 97 98 99 101 105 
10 0 0 0 0 1 3 104 103 100 
9 0 0 0 0 1 2 103 100 
5 0 0 0 0 6 2 103 100 
8 0 0 0 0 2 2 103 100 
4 0 0 0 0 2 1 102 
5 0 0 0 0 2 1 104 
9 0 0 0 0 3 1 106 
9 0 0 0 0 2 1 106 
1 0 0 0 0 3 1 106 
8 0 0 0 0 3 1 106 
0 0 0 0 0 0 1 119 
0 0 0 0 0 0 4 108 110 112 117 
3 0 0 0 1 0 3 116 111 109 
7 0 0 0 5 0 2 114 113 
1 0 0 0 2 0 2 115 114 
7 0 0 0 3 0 1 113 
6 0 0 0 1 0 1 113 
4 0 0 0 2 0 1 118 
5 0 0 0 2 0 1 118 
2 0 0 0 2 0 1 118 
10 0 0 0 4 0 1 118 
3 0 0 0 3 0 1 118 
0 0 0 0 0 0 1 119 
0 0 0 0 0 0 4 120 121 122 124 
7 0 0 0 0 1 3 129 126 123 
2 0 0 0 0 3 3 128 126 125 
2 0 0 0 0 3 3 128 126 125 
8 0 0 0 0 3 2 127 125 
5 0 0 0 0 4 1 127 
6 0 0 0 0 3 1 130 
4 0 0 0 0 1 1 130 
9 0 0 0 0 2 1 130 
3 0 0 0 0 2 1 130 
6 0 0 0 0 3 1 130 
0 0 0 0 0 0 0 
